c A SAT instance generated from a 3-CNF formula that had 45 clauses and 6 variables
p cnf 6 45
1 -5 -4 0
-6 1 -4 0
-1 -4 6 0
-5 -3 -2 0
-4 -2 -1 0
-6 5 4 0
-3 5 -6 0
4 1 3 0
5 -1 6 0
3 -1 -5 0
4 2 -3 0
1 -4 -6 0
-1 5 -6 0
6 -5 -3 0
5 -4 -2 0
4 3 -2 0
5 -3 -4 0
6 3 4 0
1 4 -6 0
1 2 4 0
1 -4 -3 0
-3 5 -4 0
2 -4 -1 0
-6 -1 2 0
-2 5 3 0
-6 -4 3 0
1 2 -6 0
5 3 -1 0
4 -1 2 0
4 -5 -6 0
6 -2 -5 0
-2 4 3 0
6 -5 3 0
-6 3 -2 0
-4 -2 -1 0
-5 6 2 0
4 2 1 0
-2 6 -5 0
5 1 6 0
1 -4 2 0
3 1 2 0
6 -2 -1 0
-1 -2 5 0
-3 -2 1 0
-4 -3 -5 0
